
Gurobi 9.0.0 (linux64) logging started Mon Feb 10 14:54:57 2020

Academic license - for non-commercial use only

Gurobi 9.0.0 (linux64) logging started Mon Feb 10 14:55:05 2020

Academic license - for non-commercial use only

Gurobi 9.0.0 (linux64) logging started Mon Feb 10 15:04:14 2020

Academic license - for non-commercial use only

Gurobi 9.0.0 (linux64) logging started Mon Feb 10 15:05:45 2020

Academic license - for non-commercial use only

Gurobi 9.0.0 (linux64) logging started Mon Feb 10 16:07:14 2020

Academic license - for non-commercial use only

Gurobi 9.0.0 (linux64) logging started Mon Feb 10 16:07:49 2020

Academic license - for non-commercial use only

Gurobi 9.0.0 (linux64) logging started Mon Feb 10 16:08:36 2020

Academic license - for non-commercial use only

Gurobi 9.0.0 (linux64) logging started Mon Feb 10 16:09:22 2020

Academic license - for non-commercial use only
